letting n =  10
letting blocks =  [[1, 2], [1, 3], [1, 4], [1, 5], [1, 7], [1, 10], [2, 5], [2, 6], [2, 7], [2, 9], [3, 1], [3, 2], [3, 3], [3, 4], [3, 7], [3, 8], [4, 1], [4, 3], [4, 4], [4, 6], [4, 7], [4, 9], [5, 2], [5, 6], [5, 8], [5, 9], [5, 10], [6, 1], [6, 2], [6, 3], [6, 4], [6, 9], [6, 10], [7, 2], [7, 5], [7, 7], [7, 8], [7, 10], [8, 1], [8, 3], [8, 5], [8, 6], [8, 9], [8, 10], [9, 1], [9, 3], [9, 5], [9, 6], [10, 1], [10, 4], [10, 6], [10, 7], [10, 8], [10, 10]]
